c Standarized MaxSat Instance
c{
c "sha1sum": "02ddb905b13ae88b2c0f1742fabcb58cc185cc71",
c "nvars": 40,
c "ncls": 798,
c "nhards": 0,
c "nhard_len_stats":
c    { "min": 0, "max": 0, "ave": 0.00,
c      "stddev": 0.00 },
c "nsofts": 798,
c "nsoft_len_stats":
c    { "min": 2, "max": 2, "ave": 2.00,
c      "stddev": 0.00 },
c "nsoft_wts": 10,
c "soft_wt_stats":
c    { "min": 1, "max": 10, "ave": 5.64,
c      "stddev": 2.88 }
c}
c------------------------------------------------------------
c File:  sanr400_0.5.clq
c
c SOURCE: Laura Sanchis (laura@cs.colgate.edu)
c
c DESCRIPTION:  Randomly generated graph of similar size to "san"
c               graphs, but with differenct clique characteristics
c
c REFERENCE: "Test Case Construction for the Vertex Cover Problem", 
c DIMACS Workshop on Computational Support for Discrete Mathematics, 
c March, 1992, with additional work in a to be published technical
c report.
c
c random graph 400 vertices 39984 edges
c 400 0.500000 1243
p wcnf 40 798 4499
9 1 2 0
9 -1 -2 0
4 1 4 0
4 -1 -4 0
8 1 5 0
8 -1 -5 0
8 1 6 0
8 -1 -6 0
10 1 7 0
10 -1 -7 0
2 1 8 0
2 -1 -8 0
4 1 9 0
4 -1 -9 0
8 1 10 0
8 -1 -10 0
3 1 14 0
3 -1 -14 0
6 1 15 0
6 -1 -15 0
5 1 17 0
5 -1 -17 0
7 1 18 0
7 -1 -18 0
4 1 19 0
4 -1 -19 0
6 1 20 0
6 -1 -20 0
10 1 24 0
10 -1 -24 0
10 1 26 0
10 -1 -26 0
7 1 30 0
7 -1 -30 0
8 1 31 0
8 -1 -31 0
2 1 32 0
2 -1 -32 0
7 1 35 0
7 -1 -35 0
1 1 36 0
1 -1 -36 0
3 1 38 0
3 -1 -38 0
2 1 39 0
2 -1 -39 0
9 1 40 0
9 -1 -40 0
2 2 6 0
2 -2 -6 0
5 2 7 0
5 -2 -7 0
2 2 11 0
2 -2 -11 0
2 2 12 0
2 -2 -12 0
10 2 14 0
10 -2 -14 0
3 2 20 0
3 -2 -20 0
6 2 22 0
6 -2 -22 0
9 2 23 0
9 -2 -23 0
7 2 24 0
7 -2 -24 0
3 2 25 0
3 -2 -25 0
7 2 27 0
7 -2 -27 0
6 2 28 0
6 -2 -28 0
5 2 29 0
5 -2 -29 0
10 2 31 0
10 -2 -31 0
3 2 32 0
3 -2 -32 0
8 2 34 0
8 -2 -34 0
6 2 38 0
6 -2 -38 0
8 2 39 0
8 -2 -39 0
5 3 4 0
5 -3 -4 0
9 3 5 0
9 -3 -5 0
3 3 7 0
3 -3 -7 0
4 3 8 0
4 -3 -8 0
9 3 9 0
9 -3 -9 0
10 3 10 0
10 -3 -10 0
1 3 13 0
1 -3 -13 0
10 3 15 0
10 -3 -15 0
6 3 16 0
6 -3 -16 0
1 3 18 0
1 -3 -18 0
2 3 20 0
2 -3 -20 0
7 3 21 0
7 -3 -21 0
9 3 22 0
9 -3 -22 0
4 3 24 0
4 -3 -24 0
1 3 25 0
1 -3 -25 0
1 3 26 0
1 -3 -26 0
5 3 30 0
5 -3 -30 0
1 3 31 0
1 -3 -31 0
3 3 34 0
3 -3 -34 0
10 3 36 0
10 -3 -36 0
10 3 37 0
10 -3 -37 0
9 4 5 0
9 -4 -5 0
3 4 6 0
3 -4 -6 0
6 4 7 0
6 -4 -7 0
4 4 8 0
4 -4 -8 0
8 4 10 0
8 -4 -10 0
6 4 12 0
6 -4 -12 0
7 4 13 0
7 -4 -13 0
6 4 15 0
6 -4 -15 0
1 4 17 0
1 -4 -17 0
5 4 22 0
5 -4 -22 0
10 4 24 0
10 -4 -24 0
10 4 26 0
10 -4 -26 0
8 4 27 0
8 -4 -27 0
3 4 28 0
3 -4 -28 0
8 4 29 0
8 -4 -29 0
7 4 31 0
7 -4 -31 0
4 4 32 0
4 -4 -32 0
7 4 33 0
7 -4 -33 0
2 4 34 0
2 -4 -34 0
5 4 35 0
5 -4 -35 0
9 4 36 0
9 -4 -36 0
9 4 40 0
9 -4 -40 0
4 5 7 0
4 -5 -7 0
3 5 8 0
3 -5 -8 0
9 5 10 0
9 -5 -10 0
4 5 12 0
4 -5 -12 0
7 5 13 0
7 -5 -13 0
10 5 14 0
10 -5 -14 0
6 5 15 0
6 -5 -15 0
7 5 19 0
7 -5 -19 0
9 5 24 0
9 -5 -24 0
5 5 26 0
5 -5 -26 0
10 5 27 0
10 -5 -27 0
4 5 31 0
4 -5 -31 0
9 5 33 0
9 -5 -33 0
7 5 37 0
7 -5 -37 0
10 5 40 0
10 -5 -40 0
5 6 8 0
5 -6 -8 0
3 6 9 0
3 -6 -9 0
10 6 10 0
10 -6 -10 0
10 6 12 0
10 -6 -12 0
2 6 13 0
2 -6 -13 0
9 6 17 0
9 -6 -17 0
7 6 18 0
7 -6 -18 0
5 6 19 0
5 -6 -19 0
7 6 20 0
7 -6 -20 0
3 6 21 0
3 -6 -21 0
8 6 22 0
8 -6 -22 0
4 6 25 0
4 -6 -25 0
5 6 27 0
5 -6 -27 0
3 6 29 0
3 -6 -29 0
2 6 30 0
2 -6 -30 0
3 6 31 0
3 -6 -31 0
6 6 32 0
6 -6 -32 0
5 6 35 0
5 -6 -35 0
2 6 36 0
2 -6 -36 0
10 6 38 0
10 -6 -38 0
2 7 8 0
2 -7 -8 0
2 7 12 0
2 -7 -12 0
5 7 18 0
5 -7 -18 0
8 7 19 0
8 -7 -19 0
10 7 20 0
10 -7 -20 0
10 7 24 0
10 -7 -24 0
7 7 30 0
7 -7 -30 0
4 7 32 0
4 -7 -32 0
8 7 33 0
8 -7 -33 0
4 7 35 0
4 -7 -35 0
3 7 37 0
3 -7 -37 0
3 7 40 0
3 -7 -40 0
6 8 9 0
6 -8 -9 0
3 8 11 0
3 -8 -11 0
2 8 12 0
2 -8 -12 0
8 8 13 0
8 -8 -13 0
2 8 14 0
2 -8 -14 0
8 8 16 0
8 -8 -16 0
2 8 17 0
2 -8 -17 0
8 8 19 0
8 -8 -19 0
1 8 20 0
1 -8 -20 0
10 8 21 0
10 -8 -21 0
1 8 27 0
1 -8 -27 0
6 8 28 0
6 -8 -28 0
2 8 29 0
2 -8 -29 0
3 8 30 0
3 -8 -30 0
8 8 31 0
8 -8 -31 0
8 8 34 0
8 -8 -34 0
7 8 38 0
7 -8 -38 0
10 9 11 0
10 -9 -11 0
7 9 12 0
7 -9 -12 0
8 9 14 0
8 -9 -14 0
1 9 16 0
1 -9 -16 0
2 9 18 0
2 -9 -18 0
6 9 20 0
6 -9 -20 0
1 9 21 0
1 -9 -21 0
1 9 23 0
1 -9 -23 0
3 9 26 0
3 -9 -26 0
5 9 27 0
5 -9 -27 0
9 9 30 0
9 -9 -30 0
6 9 31 0
6 -9 -31 0
8 9 34 0
8 -9 -34 0
1 9 35 0
1 -9 -35 0
2 9 37 0
2 -9 -37 0
10 9 38 0
10 -9 -38 0
3 9 39 0
3 -9 -39 0
9 9 40 0
9 -9 -40 0
2 10 12 0
2 -10 -12 0
10 10 15 0
10 -10 -15 0
1 10 19 0
1 -10 -19 0
9 10 20 0
9 -10 -20 0
1 10 21 0
1 -10 -21 0
1 10 22 0
1 -10 -22 0
10 10 23 0
10 -10 -23 0
6 10 24 0
6 -10 -24 0
2 10 25 0
2 -10 -25 0
2 10 26 0
2 -10 -26 0
4 10 28 0
4 -10 -28 0
10 10 29 0
10 -10 -29 0
9 10 32 0
9 -10 -32 0
4 10 34 0
4 -10 -34 0
6 10 38 0
6 -10 -38 0
6 10 39 0
6 -10 -39 0
5 10 40 0
5 -10 -40 0
7 11 13 0
7 -11 -13 0
1 11 14 0
1 -11 -14 0
6 11 17 0
6 -11 -17 0
8 11 19 0
8 -11 -19 0
4 11 22 0
4 -11 -22 0
10 11 26 0
10 -11 -26 0
6 11 29 0
6 -11 -29 0
9 11 32 0
9 -11 -32 0
8 11 34 0
8 -11 -34 0
7 11 35 0
7 -11 -35 0
1 11 36 0
1 -11 -36 0
8 11 37 0
8 -11 -37 0
9 11 38 0
9 -11 -38 0
10 12 13 0
10 -12 -13 0
9 12 16 0
9 -12 -16 0
9 12 17 0
9 -12 -17 0
10 12 18 0
10 -12 -18 0
8 12 21 0
8 -12 -21 0
10 12 22 0
10 -12 -22 0
10 12 23 0
10 -12 -23 0
7 12 24 0
7 -12 -24 0
5 12 25 0
5 -12 -25 0
2 12 28 0
2 -12 -28 0
9 12 29 0
9 -12 -29 0
9 12 33 0
9 -12 -33 0
1 12 35 0
1 -12 -35 0
7 12 39 0
7 -12 -39 0
3 12 40 0
3 -12 -40 0
7 13 15 0
7 -13 -15 0
3 13 17 0
3 -13 -17 0
8 13 18 0
8 -13 -18 0
4 13 19 0
4 -13 -19 0
4 13 23 0
4 -13 -23 0
3 13 24 0
3 -13 -24 0
1 13 26 0
1 -13 -26 0
7 13 27 0
7 -13 -27 0
3 13 28 0
3 -13 -28 0
7 13 31 0
7 -13 -31 0
6 13 32 0
6 -13 -32 0
10 13 34 0
10 -13 -34 0
3 13 35 0
3 -13 -35 0
6 13 37 0
6 -13 -37 0
8 14 15 0
8 -14 -15 0
2 14 16 0
2 -14 -16 0
5 14 19 0
5 -14 -19 0
6 14 21 0
6 -14 -21 0
10 14 22 0
10 -14 -22 0
5 14 24 0
5 -14 -24 0
4 14 25 0
4 -14 -25 0
9 14 26 0
9 -14 -26 0
5 14 28 0
5 -14 -28 0
1 14 32 0
1 -14 -32 0
4 14 33 0
4 -14 -33 0
6 14 37 0
6 -14 -37 0
9 14 39 0
9 -14 -39 0
3 15 17 0
3 -15 -17 0
7 15 18 0
7 -15 -18 0
5 15 19 0
5 -15 -19 0
5 15 22 0
5 -15 -22 0
4 15 25 0
4 -15 -25 0
8 15 26 0
8 -15 -26 0
2 15 27 0
2 -15 -27 0
7 15 29 0
7 -15 -29 0
1 15 32 0
1 -15 -32 0
5 15 33 0
5 -15 -33 0
7 15 34 0
7 -15 -34 0
7 15 36 0
7 -15 -36 0
7 16 19 0
7 -16 -19 0
4 16 24 0
4 -16 -24 0
2 16 27 0
2 -16 -27 0
7 16 28 0
7 -16 -28 0
7 16 31 0
7 -16 -31 0
8 16 32 0
8 -16 -32 0
4 16 33 0
4 -16 -33 0
8 16 34 0
8 -16 -34 0
3 16 35 0
3 -16 -35 0
10 16 36 0
10 -16 -36 0
7 16 37 0
7 -16 -37 0
7 16 39 0
7 -16 -39 0
3 17 18 0
3 -17 -18 0
6 17 20 0
6 -17 -20 0
1 17 22 0
1 -17 -22 0
3 17 23 0
3 -17 -23 0
9 17 31 0
9 -17 -31 0
7 17 32 0
7 -17 -32 0
1 17 33 0
1 -17 -33 0
2 17 34 0
2 -17 -34 0
4 17 36 0
4 -17 -36 0
6 17 40 0
6 -17 -40 0
6 18 20 0
6 -18 -20 0
7 18 21 0
7 -18 -21 0
3 18 22 0
3 -18 -22 0
8 18 24 0
8 -18 -24 0
3 18 28 0
3 -18 -28 0
4 18 29 0
4 -18 -29 0
2 18 30 0
2 -18 -30 0
10 18 31 0
10 -18 -31 0
1 18 32 0
1 -18 -32 0
9 18 34 0
9 -18 -34 0
4 18 37 0
4 -18 -37 0
2 18 40 0
2 -18 -40 0
5 19 20 0
5 -19 -20 0
10 19 21 0
10 -19 -21 0
10 19 22 0
10 -19 -22 0
8 19 28 0
8 -19 -28 0
7 19 30 0
7 -19 -30 0
2 19 33 0
2 -19 -33 0
7 19 35 0
7 -19 -35 0
4 19 36 0
4 -19 -36 0
8 19 37 0
8 -19 -37 0
10 19 39 0
10 -19 -39 0
10 20 22 0
10 -20 -22 0
9 20 26 0
9 -20 -26 0
3 20 28 0
3 -20 -28 0
8 20 30 0
8 -20 -30 0
6 20 32 0
6 -20 -32 0
3 20 35 0
3 -20 -35 0
10 20 36 0
10 -20 -36 0
10 20 40 0
10 -20 -40 0
9 21 23 0
9 -21 -23 0
5 21 24 0
5 -21 -24 0
6 21 26 0
6 -21 -26 0
2 21 28 0
2 -21 -28 0
3 21 29 0
3 -21 -29 0
9 21 30 0
9 -21 -30 0
5 21 31 0
5 -21 -31 0
5 21 32 0
5 -21 -32 0
9 21 33 0
9 -21 -33 0
5 21 34 0
5 -21 -34 0
3 21 36 0
3 -21 -36 0
2 21 37 0
2 -21 -37 0
7 21 38 0
7 -21 -38 0
8 22 24 0
8 -22 -24 0
2 22 25 0
2 -22 -25 0
7 22 27 0
7 -22 -27 0
5 22 33 0
5 -22 -33 0
9 22 35 0
9 -22 -35 0
8 22 36 0
8 -22 -36 0
2 22 37 0
2 -22 -37 0
3 22 39 0
3 -22 -39 0
5 22 40 0
5 -22 -40 0
2 23 28 0
2 -23 -28 0
2 23 32 0
2 -23 -32 0
4 23 35 0
4 -23 -35 0
4 23 36 0
4 -23 -36 0
10 24 26 0
10 -24 -26 0
10 24 29 0
10 -24 -29 0
7 24 32 0
7 -24 -32 0
9 24 33 0
9 -24 -33 0
9 24 34 0
9 -24 -34 0
5 24 35 0
5 -24 -35 0
4 24 38 0
4 -24 -38 0
4 24 39 0
4 -24 -39 0
7 25 27 0
7 -25 -27 0
7 25 28 0
7 -25 -28 0
3 25 31 0
3 -25 -31 0
2 25 35 0
2 -25 -35 0
1 25 36 0
1 -25 -36 0
2 25 37 0
2 -25 -37 0
7 25 38 0
7 -25 -38 0
4 25 39 0
4 -25 -39 0
3 26 28 0
3 -26 -28 0
4 26 32 0
4 -26 -32 0
1 26 33 0
1 -26 -33 0
5 26 34 0
5 -26 -34 0
10 26 38 0
10 -26 -38 0
6 26 40 0
6 -26 -40 0
3 27 29 0
3 -27 -29 0
7 27 32 0
7 -27 -32 0
8 27 33 0
8 -27 -33 0
5 27 35 0
5 -27 -35 0
2 27 38 0
2 -27 -38 0
9 27 39 0
9 -27 -39 0
7 28 30 0
7 -28 -30 0
6 28 31 0
6 -28 -31 0
3 28 32 0
3 -28 -32 0
6 28 33 0
6 -28 -33 0
5 28 34 0
5 -28 -34 0
9 28 35 0
9 -28 -35 0
4 28 36 0
4 -28 -36 0
3 28 37 0
3 -28 -37 0
4 28 39 0
4 -28 -39 0
8 28 40 0
8 -28 -40 0
7 29 30 0
7 -29 -30 0
10 29 32 0
10 -29 -32 0
4 29 35 0
4 -29 -35 0
9 29 37 0
9 -29 -37 0
2 29 38 0
2 -29 -38 0
5 29 39 0
5 -29 -39 0
1 30 31 0
1 -30 -31 0
8 30 34 0
8 -30 -34 0
8 31 33 0
8 -31 -33 0
3 31 34 0
3 -31 -34 0
2 31 39 0
2 -31 -39 0
9 32 33 0
9 -32 -33 0
8 32 38 0
8 -32 -38 0
1 32 39 0
1 -32 -39 0
5 32 40 0
5 -32 -40 0
10 33 36 0
10 -33 -36 0
8 33 38 0
8 -33 -38 0
3 33 39 0
3 -33 -39 0
5 33 40 0
5 -33 -40 0
9 34 35 0
9 -34 -35 0
1 34 36 0
1 -34 -36 0
1 34 39 0
1 -34 -39 0
4 35 37 0
4 -35 -37 0
4 35 38 0
4 -35 -38 0
7 35 40 0
7 -35 -40 0
9 36 38 0
9 -36 -38 0
2 36 39 0
2 -36 -39 0
1 36 40 0
1 -36 -40 0
1 37 38 0
1 -37 -38 0
5 37 40 0
5 -37 -40 0
8 38 39 0
8 -38 -39 0
7 39 40 0
7 -39 -40 0
